mixintcount/benchmarks/random_v2l/4_4_223.smt2
(set-logic QF_LIA)
(set-info :ran/ran2.smt2)
(set-info :smt-lib-version 2.0)
(declare-fun x1 () Int)
(declare-fun x2 () Int)
(declare-fun x3 () Int)
(declare-fun x4 () Int)
(assert (<= (+ (* (- 2) x1) (* (- 5) x2) (* 7 x3) (* 8 x4) ) 21))
(assert (<= (+ (* 7 x1) (* (- 1) x2) (* (- 4) x3) (* (- 6) x4) ) 116))
(assert (<= (+ (* (- 8) x1) (* 7 x2) (* (- 9) x3) (* 9 x4) ) (- 178)))
(assert (<= (+ (* 8 x1) (* 1 x2) (* (- 10) x3) (* 9 x4) ) 184))
(assert (<= (+ (* (- 2) x1) (* (- 8) x2) (* (- 9) x3) (* (- 5) x4) ) (- 104)))
(assert (<= (+ (* 0 x1) (* 3 x2) (* (- 7) x3) (* (- 9) x4) ) (- 221)))
(assert (<= (+ (* 5 x1) (* (- 1) x2) (* (- 10) x3) (* (- 1) x4) ) 89))
(assert (<= (+ (* 0 x1) (* (- 4) x2) (* 4 x3) (* 6 x4) ) (- 62)))
(assert (<= (+ (* 1 x1) (* 0 x2) (* 0 x3) (* 0 x4) ) 223))
(assert (<= (+ (* (- 1) x1) (* 0 x2) (* 0 x3) (* 0 x4) ) 223))
(assert (<= (+ (* 0 x1) (* 1 x2) (* 0 x3) (* 0 x4) ) 223))
(assert (<= (+ (* 0 x1) (* (- 1) x2) (* 0 x3) (* 0 x4) ) 223))
(assert (<= (+ (* 0 x1) (* 0 x2) (* 1 x3) (* 0 x4) ) 223))
(assert (<= (+ (* 0 x1) (* 0 x2) (* (- 1) x3) (* 0 x4) ) 223))
(assert (<= (+ (* 0 x1) (* 0 x2) (* 0 x3) (* 1 x4) ) 223))
(assert (<= (+ (* 0 x1) (* 0 x2) (* 0 x3) (* (- 1) x4) ) 223))
