mixintcount/benchmarks/random_v2l/4_4_223.in
16 6
#	x1	x2	x3	x4;		0 = Real; 1 = Integer
	1	1	1	1
1	-2	-5	7	8	21
1	7	-1	-4	-6	116
1	-8	7	-9	9	-178
1	8	1	-10	9	184
1	-2	-8	-9	-5	-104
1	0	3	-7	-9	-221
1	5	-1	-10	-1	89
1	0	-4	4	6	-62
1	1	0	0	0	223
1	-1	0	0	0	223
1	0	1	0	0	223
1	0	-1	0	0	223
1	0	0	1	0	223
1	0	0	-1	0	223
1	0	0	0	1	223
1	0	0	0	-1	223
